solution status: optimal solution found
objective value:                      190163.86105127
d11(0,0)                                            1 	(obj:0)
d11(1,1)                                            1 	(obj:0)
d11(3,7)                                            1 	(obj:0)
d11(3,8)                                            1 	(obj:0)
d11(3,9)                                            1 	(obj:0)
d11(3,10)                                           1 	(obj:0)
d11(3,11)                                           1 	(obj:0)
d11(3,12)                                           1 	(obj:0)
d11(3,13)                                           1 	(obj:0)
d11(3,14)                                           1 	(obj:0)
d11(4,15)                                           1 	(obj:0)
d11(4,17)                                           1 	(obj:0)
d11(4,23)                                           1 	(obj:0)
d11(5,31)                                           1 	(obj:0)
d11(5,32)                                           1 	(obj:0)
d11(5,33)                                           1 	(obj:0)
d11(5,34)                                           1 	(obj:0)
d11(5,35)                                           1 	(obj:0)
d11(5,36)                                           1 	(obj:0)
d11(5,37)                                           1 	(obj:0)
d11(5,38)                                           1 	(obj:0)
d11(5,39)                                           1 	(obj:0)
d11(5,40)                                           1 	(obj:0)
d11(5,41)                                           1 	(obj:0)
d11(5,42)                                           1 	(obj:0)
d11(5,43)                                           1 	(obj:0)
d11(5,45)                                           1 	(obj:0)
d11(5,46)                                           1 	(obj:0)
d11(5,47)                                           1 	(obj:0)
d11(5,48)                                           1 	(obj:0)
d11(5,49)                                           1 	(obj:0)
d11(5,50)                                           1 	(obj:0)
d11(5,51)                                           1 	(obj:0)
d11(5,52)                                           1 	(obj:0)
d11(5,53)                                           1 	(obj:0)
d11(5,54)                                           1 	(obj:0)
d11(5,55)                                           1 	(obj:0)
d11(5,56)                                           1 	(obj:0)
d11(5,57)                                           1 	(obj:0)
d11(5,58)                                           1 	(obj:0)
d11(5,59)                                           1 	(obj:0)
d11(5,60)                                           1 	(obj:0)
d11(5,61)                                           1 	(obj:0)
d11(5,62)                                           1 	(obj:0)
d12(1,2)                                            1 	(obj:0)
d12(2,4)                                            1 	(obj:0)
d12(2,6)                                            1 	(obj:0)
d12(4,16)                                           1 	(obj:0)
d12(4,18)                                           1 	(obj:0)
d12(4,20)                                           1 	(obj:0)
d12(4,22)                                           1 	(obj:0)
d12(4,24)                                           1 	(obj:0)
d12(4,26)                                           1 	(obj:0)
d12(4,28)                                           1 	(obj:0)
d12(4,30)                                           1 	(obj:0)
d21(3,7)                                            1 	(obj:0)
d21(4,15)                                           1 	(obj:0)
d21(5,31)                                           1 	(obj:0)
d21(5,32)                                           1 	(obj:0)
d21(5,33)                                           1 	(obj:0)
d21(5,34)                                           1 	(obj:0)
d21(5,35)                                           1 	(obj:0)
d21(5,37)                                           1 	(obj:0)
d21(5,39)                                           1 	(obj:0)
d21(5,40)                                           1 	(obj:0)
d21(5,41)                                           1 	(obj:0)
d21(5,43)                                           1 	(obj:0)
d21(5,47)                                           1 	(obj:0)
d21(5,48)                                           1 	(obj:0)
d21(5,49)                                           1 	(obj:0)
d21(5,51)                                           1 	(obj:0)
d21(5,55)                                           1 	(obj:0)
STE(1,1)                             7214.93819039223 	(obj:0)
STE(0,0)                                         9450 	(obj:0)
STE(1,2)                                         8694 	(obj:0)
STE(2,3)                             6458.93819039223 	(obj:0)
STE(2,4)                             7775.15227626873 	(obj:0)
STE(2,5)                                         7938 	(obj:0)
STE(2,6)                             9254.21408587651 	(obj:0)
STE(3,7)                             2688.75025105367 	(obj:0)
STE(3,8)                             4347.00014994249 	(obj:0)
STE(3,9)                             4004.96433693018 	(obj:0)
STE(3,10)                            5663.21423581899 	(obj:0)
STE(3,11)                            4167.81206066144 	(obj:0)
STE(3,12)                            5826.06195955026 	(obj:0)
STE(3,13)                            5484.02614653795 	(obj:0)
STE(3,14)                            7142.27604542677 	(obj:0)
STE(4,15)                            1932.75025105371 	(obj:0)
STE(4,16)                            3248.96433693018 	(obj:0)
STE(4,17)                                  3591.00015 	(obj:0)
STE(4,18)                            4907.21423581899 	(obj:0)
STE(4,19)                            3248.96433693018 	(obj:0)
STE(4,20)                            4565.17842280668 	(obj:0)
STE(4,21)                            4907.21423581899 	(obj:0)
STE(4,22)                             6223.4283216955 	(obj:0)
STE(4,23)                            3411.81206066149 	(obj:0)
STE(4,24)                            4728.02614653795 	(obj:0)
STE(4,25)                            5070.06195955026 	(obj:0)
STE(4,26)                            6386.27604542677 	(obj:0)
STE(4,27)                            4728.02614653795 	(obj:0)
STE(4,28)                            6044.24023241446 	(obj:0)
STE(4,29)                            6386.27604542677 	(obj:0)
STE(4,30)                            7702.49013130327 	(obj:0)
STE(5,31)                           -481.499647835133 	(obj:0)
STE(5,32)                            1176.75025105368 	(obj:0)
STE(5,33)                             834.71443804133 	(obj:0)
STE(5,34)                            2492.96433693018 	(obj:0)
STE(5,35)                            1176.75025111115 	(obj:0)
STE(5,36)                                  2835.00015 	(obj:0)
STE(5,37)                            2492.96433693015 	(obj:0)
STE(5,38)                            4151.21423581887 	(obj:0)
STE(5,39)                            834.714438041331 	(obj:0)
STE(5,40)                            2492.96433693018 	(obj:0)
STE(5,41)                            2150.92852391784 	(obj:0)
STE(5,42)                            3809.17842280668 	(obj:0)
STE(5,43)                            2492.96433693015 	(obj:0)
STE(5,44)                            4151.21423581899 	(obj:0)
STE(5,45)                            3809.17842280665 	(obj:0)
STE(5,46)                            5467.42832169547 	(obj:0)
STE(5,47)                            997.562161772641 	(obj:0)
STE(5,48)                            2655.81206066135 	(obj:0)
STE(5,49)                             2313.7762476491 	(obj:0)
STE(5,50)                            3972.02614653792 	(obj:0)
STE(5,51)                            2655.81206066142 	(obj:0)
STE(5,52)                            4314.06195955026 	(obj:0)
STE(5,53)                            3972.02614653792 	(obj:0)
STE(5,54)                            5630.27604542677 	(obj:0)
STE(5,55)                            2313.77624764911 	(obj:0)
STE(5,56)                            3972.02614653795 	(obj:0)
STE(5,57)                            3629.99033352561 	(obj:0)
STE(5,58)                            5288.24023241443 	(obj:0)
STE(5,59)                            3972.02614653792 	(obj:0)
STE(5,60)                            5630.27604542677 	(obj:0)
STE(5,61)                            5288.24023241443 	(obj:0)
STE(5,62)                            6946.49013130328 	(obj:0)
y1(5,39)                             1492.42490899996 	(obj:0)
y1(5,41)                             1492.42490899996 	(obj:0)
y1(5,43)                             1492.42490899996 	(obj:0)
y1(5,45)                             1492.42490899996 	(obj:0)
y1(5,47)                             1492.42490899996 	(obj:0)
y1(5,49)                             1492.42490899996 	(obj:0)
y1(5,51)                             1492.42490899996 	(obj:0)
y1(5,53)                             1492.42490899996 	(obj:0)
y1(5,55)                             1492.42490899996 	(obj:0)
y1(5,57)                             1492.42490899996 	(obj:0)
y1(5,59)                             1492.42490899996 	(obj:0)
y1(5,61)                             1492.42490899996 	(obj:0)
AVE(1)                                   3216.9117036 	(obj:0)
WB(2)                                692.744255724489 	(obj:0)
AVE(2)                                   3366.1541945 	(obj:0)
AVE(3)                                   3515.3966854 	(obj:0)
WB(4)                                3515.39406545826 	(obj:0)
AVE(4)                               3515.39406545826 	(obj:0)
AVE(5)                               3167.15385943327 	(obj:0)
WG(1)                                    3216.9117036 	(obj:10)
WG(2)                                2673.40993877551 	(obj:10)
WG(3)                                    3515.3966854 	(obj:10)
WG(5)                                3167.15385943327 	(obj:10)
BG(1)                                814.820305223504 	(obj:10)
BG(3)                                1926.14503440078 	(obj:10)
BG(4)                                2673.40993877551 	(obj:10)
BG(5)                                1029.13863954632 	(obj:10)
y1(1,1)                                1331.155628647 	(obj:0)
y1(3,7)                               2712.7691454047 	(obj:0)
y1(3,8)                              1220.34423640477 	(obj:0)
y1(3,9)                               2712.7691454047 	(obj:0)
y1(3,10)                             1220.34423640477 	(obj:0)
y1(3,11)                              2712.7691454047 	(obj:0)
y1(3,12)                             1220.34423640477 	(obj:0)
y1(3,13)                              2712.7691454047 	(obj:0)
y1(3,14)                             1220.34423640477 	(obj:0)
y1(4,17)                         -5.176174454391e-008 	(obj:0)
y1(5,31)                             1492.42490899996 	(obj:0)
y1(5,33)                             1492.42490899996 	(obj:0)
y1(5,35)                             1492.42490899996 	(obj:0)
y1(5,37)                             1492.42490899996 	(obj:0)
y2(2,4)                              1385.48851144895 	(obj:0)
y2(2,6)                              1385.48851144895 	(obj:0)
y2(4,16)                             1385.48851144895 	(obj:0)
y2(4,18)                             1385.48851144895 	(obj:0)
y2(4,20)                             1385.48851144895 	(obj:0)
y2(4,22)                             1385.48851144895 	(obj:0)
y2(4,24)                             1385.48851144895 	(obj:0)
y2(4,26)                             1385.48851144895 	(obj:0)
y2(4,28)                             1385.48851144895 	(obj:0)
y2(4,30)                             1385.48851144895 	(obj:0)
